words_hard_train/6848.qaiger
aag 210 23 0 1 187
2
4
8
12
16
20
24
28
36
38
42
46
50
54
58
62
70
72
76
80
84
88
92
420
6 3 5
10 6 9
14 10 13
18 14 17
22 18 21
26 22 25
30 26 29
32 27 28
34 31 33
40 37 39
44 40 43
48 44 47
52 48 51
56 52 55
60 56 59
64 60 63
66 61 62
68 65 67
74 71 73
78 74 77
82 78 81
86 82 85
90 86 89
94 90 93
96 68 94
98 69 95
100 97 99
102 38 72
104 36 71
106 102 105
108 36 39
110 107 109
112 111 75
114 41 42
116 115 45
118 117 77
120 116 76
122 119 121
124 112 122
126 125 121
128 45 46
130 129 49
132 131 81
134 130 80
136 133 135
138 127 136
140 139 135
142 49 50
144 143 53
146 145 85
148 144 84
150 147 149
152 141 150
154 153 149
156 53 54
158 157 57
160 159 89
162 158 88
164 161 163
166 155 164
168 167 163
170 57 58
172 171 61
174 173 93
176 172 92
178 175 177
180 169 178
182 181 177
184 100 183
186 101 182
188 185 187
190 110 75
192 113 123
194 193 125
196 75 76
198 197 79
200 195 199
202 194 198
204 201 203
206 190 204
208 207 203
210 126 137
212 211 139
214 79 80
216 215 83
218 213 217
220 212 216
222 219 221
224 209 222
226 225 221
228 140 151
230 229 153
232 83 84
234 233 87
236 231 235
238 230 234
240 237 239
242 227 240
244 243 239
246 154 165
248 247 167
250 87 88
252 251 91
254 249 253
256 248 252
258 255 257
260 245 258
262 261 257
264 168 179
266 265 181
268 91 92
270 269 95
272 267 271
274 266 270
276 273 275
278 263 276
280 279 275
282 189 280
284 188 281
286 283 285
288 34 286
290 19 20
292 291 23
294 244 259
296 295 261
298 293 296
300 208 223
302 301 225
304 191 205
306 305 207
308 307 40
310 303 308
312 226 241
314 313 243
316 310 315
318 317 296
320 292 319
322 316 297
324 320 323
326 15 16
328 327 19
330 329 314
332 331 317
334 11 12
336 335 15
338 336 303
340 339 311
342 7 8
344 2 37
346 345 109
348 347 4
350 349 41
352 342 351
354 353 11
356 355 309
358 349 7
360 358 9
362 361 306
364 362 41
366 357 365
368 337 302
370 366 369
372 340 371
374 328 315
376 372 375
378 332 377
380 325 379
382 299 381
384 23 24
386 385 27
388 262 277
390 389 279
392 323 390
394 322 391
396 393 395
398 386 396
400 383 399
402 387 397
404 401 403
406 404 394
408 288 407
410 35 287
412 406 410
414 409 413
416 405 395
418 416 411
420 414 419
i0 2 y1[0]
i1 2 y1[1]
i2 2 y1[2]
i3 2 y1[3]
i4 2 y1[4]
i5 2 y1[5]
i6 2 y1[6]
i7 2 y1[7]
i8 1 x1[0]
i9 1 x1[1]
i10 1 x1[2]
i11 1 x1[3]
i12 1 x1[4]
i13 1 x1[5]
i14 1 x1[6]
i15 1 x1[7]
i16 2 y2[0]
i17 2 y2[1]
i18 2 y2[2]
i19 2 y2[3]
i20 2 y2[4]
i21 2 y2[5]
i22 2 y2[6]
o0 bv[0]
c
simplified
  <=
    subtract
      subtract
        2 y2
        1 x1
      2 y2
    unary minus
      2 y1
