words_hard_train/6848.qaiger.qdimacs
p cnf 210 562
a 18 19 21 23 25 27 29 31 0
e 1 2 3 4 5 6 7 8 9 10 11 12 13 14 15 16 17 20 22 24 26 28 30 32 33 34 35 36 37 38 39 40 41 42 43 44 45 46 47 48 49 50 51 52 53 54 55 56 57 58 59 60 61 62 63 64 65 66 67 68 69 70 71 72 73 74 75 76 77 78 79 80 81 82 83 84 85 86 87 88 89 90 91 92 93 94 95 96 97 98 99 100 101 102 103 104 105 106 107 108 109 110 111 112 113 114 115 116 117 118 119 120 121 122 123 124 125 126 127 128 129 130 131 132 133 134 135 136 137 138 139 140 141 142 143 144 145 146 147 148 149 150 151 152 153 154 155 156 157 158 159 160 161 162 163 164 165 166 167 168 169 170 171 172 173 174 175 176 177 178 179 180 181 182 183 184 185 186 187 188 189 190 191 192 193 194 195 196 197 198 199 200 201 202 203 204 205 206 207 208 209 210 0
1 2 3 0
-1 -3 0
-2 -3 0
-3 4 5 0
3 -5 0
-4 -5 0
-5 6 7 0
5 -7 0
-6 -7 0
-7 8 9 0
7 -9 0
-8 -9 0
-9 10 11 0
9 -11 0
-10 -11 0
-11 12 13 0
11 -13 0
-12 -13 0
-13 14 15 0
13 -15 0
-14 -15 0
13 -14 16 0
-13 -16 0
14 -16 0
15 16 17 0
-15 -17 0
-16 -17 0
18 19 20 0
-18 -20 0
-19 -20 0
-20 21 22 0
20 -22 0
-21 -22 0
-22 23 24 0
22 -24 0
-23 -24 0
-24 25 26 0
24 -26 0
-25 -26 0
-26 27 28 0
26 -28 0
-27 -28 0
-28 29 30 0
28 -30 0
-29 -30 0
-30 31 32 0
30 -32 0
-31 -32 0
30 -31 33 0
-30 -33 0
31 -33 0
32 33 34 0
-32 -34 0
-33 -34 0
35 36 37 0
-35 -37 0
-36 -37 0
-37 38 39 0
37 -39 0
-38 -39 0
-39 40 41 0
39 -41 0
-40 -41 0
-41 42 43 0
41 -43 0
-42 -43 0
-43 44 45 0
43 -45 0
-44 -45 0
-45 46 47 0
45 -47 0
-46 -47 0
-34 -47 48 0
34 -48 0
47 -48 0
34 47 49 0
-34 -49 0
-47 -49 0
48 49 50 0
-48 -50 0
-49 -50 0
-19 -36 51 0
19 -51 0
36 -51 0
-18 35 52 0
18 -52 0
-35 -52 0
-51 52 53 0
51 -53 0
-52 -53 0
-18 19 54 0
18 -54 0
-19 -54 0
53 54 55 0
-53 -55 0
-54 -55 0
55 37 56 0
-55 -56 0
-37 -56 0
20 -21 57 0
-20 -57 0
21 -57 0
57 22 58 0
-57 -58 0
-22 -58 0
58 38 59 0
-58 -59 0
-38 -59 0
-58 -38 60 0
58 -60 0
38 -60 0
59 60 61 0
-59 -61 0
-60 -61 0
-56 -61 62 0
56 -62 0
61 -62 0
62 60 63 0
-62 -63 0
-60 -63 0
22 -23 64 0
-22 -64 0
23 -64 0
64 24 65 0
-64 -65 0
-24 -65 0
65 40 66 0
-65 -66 0
-40 -66 0
-65 -40 67 0
65 -67 0
40 -67 0
66 67 68 0
-66 -68 0
-67 -68 0
63 -68 69 0
-63 -69 0
68 -69 0
69 67 70 0
-69 -70 0
-67 -70 0
24 -25 71 0
-24 -71 0
25 -71 0
71 26 72 0
-71 -72 0
-26 -72 0
72 42 73 0
-72 -73 0
-42 -73 0
-72 -42 74 0
72 -74 0
42 -74 0
73 74 75 0
-73 -75 0
-74 -75 0
70 -75 76 0
-70 -76 0
75 -76 0
76 74 77 0
-76 -77 0
-74 -77 0
26 -27 78 0
-26 -78 0
27 -78 0
78 28 79 0
-78 -79 0
-28 -79 0
79 44 80 0
-79 -80 0
-44 -80 0
-79 -44 81 0
79 -81 0
44 -81 0
80 81 82 0
-80 -82 0
-81 -82 0
77 -82 83 0
-77 -83 0
82 -83 0
83 81 84 0
-83 -84 0
-81 -84 0
28 -29 85 0
-28 -85 0
29 -85 0
85 30 86 0
-85 -86 0
-30 -86 0
86 46 87 0
-86 -87 0
-46 -87 0
-86 -46 88 0
86 -88 0
46 -88 0
87 88 89 0
-87 -89 0
-88 -89 0
84 -89 90 0
-84 -90 0
89 -90 0
90 88 91 0
-90 -91 0
-88 -91 0
-50 91 92 0
50 -92 0
-91 -92 0
50 -91 93 0
-50 -93 0
91 -93 0
92 93 94 0
-92 -94 0
-93 -94 0
-55 37 95 0
55 -95 0
-37 -95 0
56 61 96 0
-56 -96 0
-61 -96 0
96 62 97 0
-96 -97 0
-62 -97 0
37 -38 98 0
-37 -98 0
38 -98 0
98 39 99 0
-98 -99 0
-39 -99 0
97 99 100 0
-97 -100 0
-99 -100 0
-97 -99 101 0
97 -101 0
99 -101 0
100 101 102 0
-100 -102 0
-101 -102 0
-95 -102 103 0
95 -103 0
102 -103 0
103 101 104 0
-103 -104 0
-101 -104 0
-63 68 105 0
63 -105 0
-68 -105 0
105 69 106 0
-105 -106 0
-69 -106 0
39 -40 107 0
-39 -107 0
40 -107 0
107 41 108 0
-107 -108 0
-41 -108 0
106 108 109 0
-106 -109 0
-108 -109 0
-106 -108 110 0
106 -110 0
108 -110 0
109 110 111 0
-109 -111 0
-110 -111 0
104 -111 112 0
-104 -112 0
111 -112 0
112 110 113 0
-112 -113 0
-110 -113 0
-70 75 114 0
70 -114 0
-75 -114 0
114 76 115 0
-114 -115 0
-76 -115 0
41 -42 116 0
-41 -116 0
42 -116 0
116 43 117 0
-116 -117 0
-43 -117 0
115 117 118 0
-115 -118 0
-117 -118 0
-115 -117 119 0
115 -119 0
117 -119 0
118 119 120 0
-118 -120 0
-119 -120 0
113 -120 121 0
-113 -121 0
120 -121 0
121 119 122 0
-121 -122 0
-119 -122 0
-77 82 123 0
77 -123 0
-82 -123 0
123 83 124 0
-123 -124 0
-83 -124 0
43 -44 125 0
-43 -125 0
44 -125 0
125 45 126 0
-125 -126 0
-45 -126 0
124 126 127 0
-124 -127 0
-126 -127 0
-124 -126 128 0
124 -128 0
126 -128 0
127 128 129 0
-127 -129 0
-128 -129 0
122 -129 130 0
-122 -130 0
129 -130 0
130 128 131 0
-130 -131 0
-128 -131 0
-84 89 132 0
84 -132 0
-89 -132 0
132 90 133 0
-132 -133 0
-90 -133 0
45 -46 134 0
-45 -134 0
46 -134 0
134 47 135 0
-134 -135 0
-47 -135 0
133 135 136 0
-133 -136 0
-135 -136 0
-133 -135 137 0
133 -137 0
135 -137 0
136 137 138 0
-136 -138 0
-137 -138 0
131 -138 139 0
-131 -139 0
138 -139 0
139 137 140 0
-139 -140 0
-137 -140 0
94 -140 141 0
-94 -141 0
140 -141 0
-94 140 142 0
94 -142 0
-140 -142 0
141 142 143 0
-141 -143 0
-142 -143 0
-17 -143 144 0
17 -144 0
143 -144 0
9 -10 145 0
-9 -145 0
10 -145 0
145 11 146 0
-145 -146 0
-11 -146 0
-122 129 147 0
122 -147 0
-129 -147 0
147 130 148 0
-147 -148 0
-130 -148 0
146 -148 149 0
-146 -149 0
148 -149 0
-104 111 150 0
104 -150 0
-111 -150 0
150 112 151 0
-150 -151 0
-112 -151 0
95 102 152 0
-95 -152 0
-102 -152 0
152 103 153 0
-152 -153 0
-103 -153 0
153 -20 154 0
-153 -154 0
20 -154 0
151 -154 155 0
-151 -155 0
154 -155 0
-113 120 156 0
113 -156 0
-120 -156 0
156 121 157 0
-156 -157 0
-121 -157 0
-155 157 158 0
155 -158 0
-157 -158 0
158 -148 159 0
-158 -159 0
148 -159 0
-146 159 160 0
146 -160 0
-159 -160 0
-158 148 161 0
158 -161 0
-148 -161 0
-160 161 162 0
160 -162 0
-161 -162 0
7 -8 163 0
-7 -163 0
8 -163 0
163 9 164 0
-163 -164 0
-9 -164 0
164 -157 165 0
-164 -165 0
157 -165 0
165 158 166 0
-165 -166 0
-158 -166 0
5 -6 167 0
-5 -167 0
6 -167 0
167 7 168 0
-167 -168 0
-7 -168 0
-168 151 169 0
168 -169 0
-151 -169 0
169 155 170 0
-169 -170 0
-155 -170 0
3 -4 171 0
-3 -171 0
4 -171 0
-1 18 172 0
1 -172 0
-18 -172 0
172 54 173 0
-172 -173 0
-54 -173 0
173 -2 174 0
-173 -174 0
2 -174 0
174 20 175 0
-174 -175 0
-20 -175 0
-171 175 176 0
171 -176 0
-175 -176 0
176 5 177 0
-176 -177 0
-5 -177 0
177 154 178 0
-177 -178 0
-154 -178 0
174 3 179 0
-174 -179 0
-3 -179 0
-179 4 180 0
179 -180 0
-4 -180 0
180 -153 181 0
-180 -181 0
153 -181 0
-181 20 182 0
181 -182 0
-20 -182 0
178 182 183 0
-178 -183 0
-182 -183 0
168 -151 184 0
-168 -184 0
151 -184 0
-183 184 185 0
183 -185 0
-184 -185 0
-170 185 186 0
170 -186 0
-185 -186 0
-164 157 187 0
164 -187 0
-157 -187 0
-186 187 188 0
186 -188 0
-187 -188 0
-166 188 189 0
166 -189 0
-188 -189 0
162 189 190 0
-162 -190 0
-189 -190 0
149 190 191 0
-149 -191 0
-190 -191 0
11 -12 192 0
-11 -192 0
12 -192 0
192 13 193 0
-192 -193 0
-13 -193 0
-131 138 194 0
131 -194 0
-138 -194 0
194 139 195 0
-194 -195 0
-139 -195 0
161 -195 196 0
-161 -196 0
195 -196 0
-161 195 197 0
161 -197 0
-195 -197 0
196 197 198 0
-196 -198 0
-197 -198 0
-193 -198 199 0
193 -199 0
198 -199 0
191 199 200 0
-191 -200 0
-199 -200 0
193 198 201 0
-193 -201 0
-198 -201 0
200 201 202 0
-200 -202 0
-201 -202 0
-202 -197 203 0
202 -203 0
197 -203 0
-144 203 204 0
144 -204 0
-203 -204 0
17 143 205 0
-17 -205 0
-143 -205 0
-203 -205 206 0
203 -206 0
205 -206 0
204 206 207 0
-204 -207 0
-206 -207 0
202 197 208 0
-202 -208 0
-197 -208 0
-208 205 209 0
208 -209 0
-205 -209 0
-207 209 210 0
207 -210 0
-209 -210 0
210 0
